words_hard_train/972.qaiger
aag 120 21 0 1 99
2
4
8
10
24
26
30
34
44
46
66
82
120
122
142
160
162
182
196
198
220
240
6 3 5
12 9 11
14 8 10
16 13 15
18 7 16
20 6 17
22 19 21
28 25 27
32 28 31
36 33 34
38 32 35
40 37 39
42 23 41
48 45 47
50 44 46
52 49 51
54 15 53
56 14 52
58 55 57
60 21 58
62 20 59
64 61 63
68 39 66
70 38 67
72 69 71
74 65 73
76 43 75
78 3 26
80 79 29
84 82 24
86 2 27
88 84 87
90 80 89
92 29 30
94 93 33
96 90 94
98 91 95
100 2 4
102 101 7
104 99 102
106 97 105
108 22 40
110 106 109
112 76 111
114 64 72
116 113 115
118 57 51
124 121 123
126 120 122
128 125 127
130 118 129
132 119 128
134 131 133
136 63 134
138 62 135
140 137 139
144 71 142
146 70 143
148 145 147
150 140 148
152 116 151
154 141 149
156 153 155
158 133 127
164 161 163
166 160 162
168 165 167
170 158 169
172 159 168
174 171 173
176 139 174
178 138 175
180 177 179
184 147 182
186 146 183
188 185 187
190 181 189
192 156 191
194 192 186
200 196 198
202 197 199
204 201 203
206 173 167
208 204 207
210 205 206
212 209 211
214 212 179
216 213 178
218 215 217
222 219 220
224 195 223
226 181 187
228 227 185
230 229 193
232 218 221
234 231 233
236 224 235
238 194 222
240 237 239
i0 2 y2[1]
i1 2 y2[2]
i2 2 y2[3]
i3 2 y1[0]
i4 1 x1[0]
i5 1 x1[1]
i6 1 x1[2]
i7 1 x1[3]
i8 2 y2[4]
i9 2 y1[1]
i10 1 x1[4]
i11 2 y2[0]
i12 2 y2[5]
i13 2 y1[2]
i14 1 x1[5]
i15 2 y2[6]
i16 2 y1[3]
i17 1 x1[6]
i18 2 y2[7]
i19 2 y1[4]
i20 1 x1[7]
o0 bv[0]
c
simplified
  <=
    1 x1
    subtract
      1
      add
        2 y2
        << 3
          2 y1
