words_hard_train/972.qaiger.qdimacs
p cnf 120 298
a 33 71 12 13 110 15 17 91 0
e 1 2 3 4 5 6 7 8 9 10 11 14 16 18 19 20 21 22 23 24 25 26 27 28 29 30 31 32 34 35 36 37 38 39 40 41 42 43 44 45 46 47 48 49 50 51 52 53 54 55 56 57 58 59 60 61 62 63 64 65 66 67 68 69 70 72 73 74 75 76 77 78 79 80 81 82 83 84 85 86 87 88 89 90 92 93 94 95 96 97 98 99 100 101 102 103 104 105 106 107 108 109 111 112 113 114 115 116 117 118 119 120 0
1 2 3 0
-1 -3 0
-2 -3 0
4 5 6 0
-4 -6 0
-5 -6 0
-4 -5 7 0
4 -7 0
5 -7 0
6 7 8 0
-6 -8 0
-7 -8 0
3 -8 9 0
-3 -9 0
8 -9 0
-3 8 10 0
3 -10 0
-8 -10 0
9 10 11 0
-9 -11 0
-10 -11 0
12 13 14 0
-12 -14 0
-13 -14 0
-14 15 16 0
14 -16 0
-15 -16 0
16 -17 18 0
-16 -18 0
17 -18 0
-16 17 19 0
16 -19 0
-17 -19 0
18 19 20 0
-18 -20 0
-19 -20 0
11 20 21 0
-11 -21 0
-20 -21 0
22 23 24 0
-22 -24 0
-23 -24 0
-22 -23 25 0
22 -25 0
23 -25 0
24 25 26 0
-24 -26 0
-25 -26 0
7 26 27 0
-7 -27 0
-26 -27 0
-7 -26 28 0
7 -28 0
26 -28 0
27 28 29 0
-27 -29 0
-28 -29 0
10 -29 30 0
-10 -30 0
29 -30 0
-10 29 31 0
10 -31 0
-29 -31 0
30 31 32 0
-30 -32 0
-31 -32 0
19 -33 34 0
-19 -34 0
33 -34 0
-19 33 35 0
19 -35 0
-33 -35 0
34 35 36 0
-34 -36 0
-35 -36 0
32 36 37 0
-32 -37 0
-36 -37 0
21 37 38 0
-21 -38 0
-37 -38 0
1 -13 39 0
-1 -39 0
13 -39 0
39 14 40 0
-39 -40 0
-14 -40 0
-41 -12 42 0
41 -42 0
12 -42 0
-1 13 43 0
1 -43 0
-13 -43 0
-42 43 44 0
42 -44 0
-43 -44 0
-40 44 45 0
40 -45 0
-44 -45 0
14 -15 46 0
-14 -46 0
15 -46 0
46 16 47 0
-46 -47 0
-16 -47 0
-45 -47 48 0
45 -48 0
47 -48 0
45 47 49 0
-45 -49 0
-47 -49 0
-1 -2 50 0
1 -50 0
2 -50 0
50 3 51 0
-50 -51 0
-3 -51 0
49 -51 52 0
-49 -52 0
51 -52 0
48 52 53 0
-48 -53 0
-52 -53 0
-11 -20 54 0
11 -54 0
20 -54 0
-53 54 55 0
53 -55 0
-54 -55 0
-38 55 56 0
38 -56 0
-55 -56 0
-32 -36 57 0
32 -57 0
36 -57 0
56 57 58 0
-56 -58 0
-57 -58 0
28 25 59 0
-28 -59 0
-25 -59 0
60 61 62 0
-60 -62 0
-61 -62 0
-60 -61 63 0
60 -63 0
61 -63 0
62 63 64 0
-62 -64 0
-63 -64 0
-59 64 65 0
59 -65 0
-64 -65 0
59 -64 66 0
-59 -66 0
64 -66 0
65 66 67 0
-65 -67 0
-66 -67 0
31 -67 68 0
-31 -68 0
67 -68 0
-31 67 69 0
31 -69 0
-67 -69 0
68 69 70 0
-68 -70 0
-69 -70 0
35 -71 72 0
-35 -72 0
71 -72 0
-35 71 73 0
35 -73 0
-71 -73 0
72 73 74 0
-72 -74 0
-73 -74 0
-70 -74 75 0
70 -75 0
74 -75 0
-58 75 76 0
58 -76 0
-75 -76 0
70 74 77 0
-70 -77 0
-74 -77 0
76 77 78 0
-76 -78 0
-77 -78 0
66 63 79 0
-66 -79 0
-63 -79 0
80 81 82 0
-80 -82 0
-81 -82 0
-80 -81 83 0
80 -83 0
81 -83 0
82 83 84 0
-82 -84 0
-83 -84 0
-79 84 85 0
79 -85 0
-84 -85 0
79 -84 86 0
-79 -86 0
84 -86 0
85 86 87 0
-85 -87 0
-86 -87 0
69 -87 88 0
-69 -88 0
87 -88 0
-69 87 89 0
69 -89 0
-87 -89 0
88 89 90 0
-88 -90 0
-89 -90 0
73 -91 92 0
-73 -92 0
91 -92 0
-73 91 93 0
73 -93 0
-91 -93 0
92 93 94 0
-92 -94 0
-93 -94 0
90 94 95 0
-90 -95 0
-94 -95 0
-78 95 96 0
78 -96 0
-95 -96 0
-96 -93 97 0
96 -97 0
93 -97 0
-98 -99 100 0
98 -100 0
99 -100 0
98 99 101 0
-98 -101 0
-99 -101 0
100 101 102 0
-100 -102 0
-101 -102 0
86 83 103 0
-86 -103 0
-83 -103 0
-102 103 104 0
102 -104 0
-103 -104 0
102 -103 105 0
-102 -105 0
103 -105 0
104 105 106 0
-104 -106 0
-105 -106 0
-106 89 107 0
106 -107 0
-89 -107 0
106 -89 108 0
-106 -108 0
89 -108 0
107 108 109 0
-107 -109 0
-108 -109 0
109 -110 111 0
-109 -111 0
110 -111 0
97 111 112 0
-97 -112 0
-111 -112 0
90 93 113 0
-90 -113 0
-93 -113 0
113 92 114 0
-113 -114 0
-92 -114 0
114 96 115 0
-114 -115 0
-96 -115 0
-109 110 116 0
109 -116 0
-110 -116 0
115 116 117 0
-115 -117 0
-116 -117 0
-112 117 118 0
112 -118 0
-117 -118 0
-97 -111 119 0
97 -119 0
111 -119 0
118 119 120 0
-118 -120 0
-119 -120 0
120 0
